(set-info :source |printed by MathSAT|)
(declare-fun |!{$(in_main#0)<a1.1>}| () (Array Int Int))
(declare-fun |!{$(in_main#0)<a1.1>}.next| () (Array Int Int))
(declare-fun |!{$(in_main#0)<a9.2>}| () (Array Int Int))
(declare-fun |!{$(in_main#0)<a9.2>}.next| () (Array Int Int))
(declare-fun |!{$(in_main#0)<a2.3>}| () (Array Int Int))
(declare-fun |!{$(in_main#0)<a2.3>}.next| () (Array Int Int))
(declare-fun |!{$(in_main#0)<a3.4>}| () (Array Int Int))
(declare-fun |!{$(in_main#0)<a3.4>}.next| () (Array Int Int))
(declare-fun |!{$(in_main#0)<a4.5>}| () (Array Int Int))
(declare-fun |!{$(in_main#0)<a4.5>}.next| () (Array Int Int))
(declare-fun |!{$(in_main#0)<a5.6>}| () (Array Int Int))
(declare-fun |!{$(in_main#0)<a5.6>}.next| () (Array Int Int))
(declare-fun |!{$(in_main#0)<a6.7>}| () (Array Int Int))
(declare-fun |!{$(in_main#0)<a6.7>}.next| () (Array Int Int))
(declare-fun |!{$(in_main#0)<a7.8>}| () (Array Int Int))
(declare-fun |!{$(in_main#0)<a7.8>}.next| () (Array Int Int))
(declare-fun |!{$(in_main#0)<a8.9>}| () (Array Int Int))
(declare-fun |!{$(in_main#0)<a8.9>}.next| () (Array Int Int))
(declare-fun |!{$(in_main#0)<a0.10>}| () (Array Int Int))
(declare-fun |!{$(in_main#0)<a0.10>}.next| () (Array Int Int))
(declare-fun |!{$(in_main#0)<N>}| () Int)
(declare-fun |!{$(in_main#0)<N>}.next| () Int)
(declare-fun |!{$(in_main#0)<a>}| () Int)
(declare-fun |!{$(in_main#0)<a>}.next| () Int)
(declare-fun |!{$(in_main#0)<i>}| () Int)
(declare-fun |!{$(in_main#0)<i>}.next| () Int)
(declare-fun |!{$(in_main#0)<x>}| () Int)
(declare-fun |!{$(in_main#0)<x>}.next| () Int)
(declare-fun |!{$(in_main#0)<$(in___VERIFIER_nondet_int#0)<h#<__VERIFIER_nondet_int.return>>>}| () Int)
(declare-fun |!{$(in_main#0)<$(in___VERIFIER_nondet_int#1)<h#<__VERIFIER_nondet_int.return>>>}| () Int)
(declare-fun |!{$(in_main#0)<$(in___VERIFIER_nondet_int#2)<h#<__VERIFIER_nondet_int.return>>>}| () Int)
(declare-fun !pc () Int)
(declare-fun !pc.next () Int)
(declare-fun |%{$(in_main#0)<i>}#1| () Int)
(declare-fun |%{$(in_main#0)<x>}#1| () Int)
(declare-fun |%{$(in_main#0)<a1.1>}#1| () (Array Int Int))
(declare-fun |%{$(in_main#0)<a9.2>}#1| () (Array Int Int))
(declare-fun |%{$(in_main#0)<a2.3>}#1| () (Array Int Int))
(declare-fun |%{$(in_main#0)<a3.4>}#1| () (Array Int Int))
(declare-fun |%{$(in_main#0)<a4.5>}#1| () (Array Int Int))
(declare-fun |%{$(in_main#0)<a5.6>}#1| () (Array Int Int))
(declare-fun |%{$(in_main#0)<a6.7>}#1| () (Array Int Int))
(declare-fun |%{$(in_main#0)<a7.8>}#1| () (Array Int Int))
(declare-fun |%{$(in_main#0)<a8.9>}#1| () (Array Int Int))
(declare-fun |%{$(in_main#0)<a0.10>}#1| () (Array Int Int))
(define-fun .def_61 () Int (! !pc :next !pc.next))
(define-fun .def_64 () Bool (! (= .def_61 2) :init true))
(define-fun .def_434 () Bool (= .def_61 45))
(define-fun .def_402 () Bool (= !pc.next 74))
(define-fun .def_437 () Bool (and .def_402 .def_434))
(define-fun .def_30 () Int (! |!{$(in_main#0)<a>}| :next |!{$(in_main#0)<a>}.next|))
(define-fun .def_28 () Int (! |!{$(in_main#0)<N>}| :next |!{$(in_main#0)<N>}.next|))
(define-fun .def_409 () Bool (<= .def_28 .def_30))
(define-fun .def_242 () Bool (= |!{$(in_main#0)<i>}.next| 0))
(define-fun .def_10 () (Array Int Int) (! |!{$(in_main#0)<a9.2>}| :next |!{$(in_main#0)<a9.2>}.next|))
(define-fun .def_129 () Bool (= .def_10 |!{$(in_main#0)<a9.2>}.next|))
(define-fun .def_8 () (Array Int Int) (! |!{$(in_main#0)<a1.1>}| :next |!{$(in_main#0)<a1.1>}.next|))
(define-fun .def_127 () Bool (= .def_8 |!{$(in_main#0)<a1.1>}.next|))
(define-fun .def_156 () Bool (and .def_127 .def_129))
(define-fun .def_12 () (Array Int Int) (! |!{$(in_main#0)<a2.3>}| :next |!{$(in_main#0)<a2.3>}.next|))
(define-fun .def_131 () Bool (= .def_12 |!{$(in_main#0)<a2.3>}.next|))
(define-fun .def_157 () Bool (and .def_131 .def_156))
(define-fun .def_14 () (Array Int Int) (! |!{$(in_main#0)<a3.4>}| :next |!{$(in_main#0)<a3.4>}.next|))
(define-fun .def_133 () Bool (= .def_14 |!{$(in_main#0)<a3.4>}.next|))
(define-fun .def_158 () Bool (and .def_133 .def_157))
(define-fun .def_16 () (Array Int Int) (! |!{$(in_main#0)<a4.5>}| :next |!{$(in_main#0)<a4.5>}.next|))
(define-fun .def_135 () Bool (= .def_16 |!{$(in_main#0)<a4.5>}.next|))
(define-fun .def_159 () Bool (and .def_135 .def_158))
(define-fun .def_18 () (Array Int Int) (! |!{$(in_main#0)<a5.6>}| :next |!{$(in_main#0)<a5.6>}.next|))
(define-fun .def_137 () Bool (= .def_18 |!{$(in_main#0)<a5.6>}.next|))
(define-fun .def_160 () Bool (and .def_137 .def_159))
(define-fun .def_20 () (Array Int Int) (! |!{$(in_main#0)<a6.7>}| :next |!{$(in_main#0)<a6.7>}.next|))
(define-fun .def_139 () Bool (= .def_20 |!{$(in_main#0)<a6.7>}.next|))
(define-fun .def_161 () Bool (and .def_139 .def_160))
(define-fun .def_22 () (Array Int Int) (! |!{$(in_main#0)<a7.8>}| :next |!{$(in_main#0)<a7.8>}.next|))
(define-fun .def_141 () Bool (= .def_22 |!{$(in_main#0)<a7.8>}.next|))
(define-fun .def_162 () Bool (and .def_141 .def_161))
(define-fun .def_24 () (Array Int Int) (! |!{$(in_main#0)<a8.9>}| :next |!{$(in_main#0)<a8.9>}.next|))
(define-fun .def_143 () Bool (= .def_24 |!{$(in_main#0)<a8.9>}.next|))
(define-fun .def_163 () Bool (and .def_143 .def_162))
(define-fun .def_26 () (Array Int Int) (! |!{$(in_main#0)<a0.10>}| :next |!{$(in_main#0)<a0.10>}.next|))
(define-fun .def_145 () Bool (= .def_26 |!{$(in_main#0)<a0.10>}.next|))
(define-fun .def_164 () Bool (and .def_145 .def_163))
(define-fun .def_147 () Bool (= .def_28 |!{$(in_main#0)<N>}.next|))
(define-fun .def_165 () Bool (and .def_147 .def_164))
(define-fun .def_149 () Bool (= .def_30 |!{$(in_main#0)<a>}.next|))
(define-fun .def_166 () Bool (and .def_149 .def_165))
(define-fun .def_243 () Bool (and .def_166 .def_242))
(define-fun .def_34 () Int (! |!{$(in_main#0)<x>}| :next |!{$(in_main#0)<x>}.next|))
(define-fun .def_153 () Bool (= .def_34 |!{$(in_main#0)<x>}.next|))
(define-fun .def_244 () Bool (and .def_153 .def_243))
(define-fun .def_433 () Bool (and .def_244 .def_409))
(define-fun .def_438 () Bool (and .def_433 .def_437))
(define-fun .def_113 () Bool (= !pc.next 45))
(define-fun .def_435 () Bool (and .def_113 .def_434))
(define-fun .def_426 () Int (* (- 1) |!{$(in_main#0)<a>}.next|))
(define-fun .def_427 () Int (+ .def_30 .def_426))
(define-fun .def_428 () Bool (= .def_427 (- 1)))
(define-fun .def_412 () (Array Int Int) (store .def_10 .def_30 |!{$(in_main#0)<$(in___VERIFIER_nondet_int#2)<h#<__VERIFIER_nondet_int.return>>>}|))
(define-fun .def_415 () Bool (= |!{$(in_main#0)<a9.2>}.next| .def_412))
(define-fun .def_411 () (Array Int Int) (store .def_8 .def_30 |!{$(in_main#0)<$(in___VERIFIER_nondet_int#1)<h#<__VERIFIER_nondet_int.return>>>}|))
(define-fun .def_414 () Bool (= |!{$(in_main#0)<a1.1>}.next| .def_411))
(define-fun .def_416 () Bool (and .def_414 .def_415))
(define-fun .def_417 () Bool (and .def_131 .def_416))
(define-fun .def_418 () Bool (and .def_133 .def_417))
(define-fun .def_419 () Bool (and .def_135 .def_418))
(define-fun .def_420 () Bool (and .def_137 .def_419))
(define-fun .def_421 () Bool (and .def_139 .def_420))
(define-fun .def_422 () Bool (and .def_141 .def_421))
(define-fun .def_423 () Bool (and .def_143 .def_422))
(define-fun .def_424 () Bool (and .def_145 .def_423))
(define-fun .def_425 () Bool (and .def_147 .def_424))
(define-fun .def_429 () Bool (and .def_425 .def_428))
(define-fun .def_32 () Int (! |!{$(in_main#0)<i>}| :next |!{$(in_main#0)<i>}.next|))
(define-fun .def_151 () Bool (= .def_32 |!{$(in_main#0)<i>}.next|))
(define-fun .def_430 () Bool (and .def_151 .def_429))
(define-fun .def_431 () Bool (and .def_153 .def_430))
(define-fun .def_410 () Bool (not .def_409))
(define-fun .def_432 () Bool (and .def_410 .def_431))
(define-fun .def_436 () Bool (and .def_432 .def_435))
(define-fun .def_439 () Bool (or .def_436 .def_438))
(define-fun .def_401 () Bool (= .def_61 74))
(define-fun .def_377 () Bool (= !pc.next 88))
(define-fun .def_405 () Bool (and .def_377 .def_401))
(define-fun .def_206 () Bool (<= .def_28 .def_32))
(define-fun .def_245 () Bool (and .def_206 .def_244))
(define-fun .def_406 () Bool (and .def_245 .def_405))
(define-fun .def_403 () Bool (and .def_401 .def_402))
(define-fun .def_384 () Int (select .def_8 .def_32))
(define-fun .def_385 () (Array Int Int) (store .def_12 .def_32 .def_384))
(define-fun .def_386 () Bool (= |!{$(in_main#0)<a2.3>}.next| .def_385))
(define-fun .def_387 () Bool (and .def_156 .def_386))
(define-fun .def_388 () Bool (and .def_133 .def_387))
(define-fun .def_389 () Bool (and .def_135 .def_388))
(define-fun .def_390 () Bool (and .def_137 .def_389))
(define-fun .def_391 () Bool (and .def_139 .def_390))
(define-fun .def_392 () Bool (and .def_141 .def_391))
(define-fun .def_393 () Bool (and .def_143 .def_392))
(define-fun .def_394 () Bool (and .def_145 .def_393))
(define-fun .def_395 () Bool (and .def_147 .def_394))
(define-fun .def_396 () Bool (and .def_149 .def_395))
(define-fun .def_215 () Int (* (- 1) |!{$(in_main#0)<i>}.next|))
(define-fun .def_216 () Int (+ .def_32 .def_215))
(define-fun .def_217 () Bool (= .def_216 (- 1)))
(define-fun .def_397 () Bool (and .def_217 .def_396))
(define-fun .def_398 () Bool (and .def_153 .def_397))
(define-fun .def_207 () Bool (not .def_206))
(define-fun .def_399 () Bool (and .def_207 .def_398))
(define-fun .def_404 () Bool (and .def_399 .def_403))
(define-fun .def_407 () Bool (or .def_404 .def_406))
(define-fun .def_376 () Bool (= .def_61 88))
(define-fun .def_353 () Bool (= !pc.next 102))
(define-fun .def_380 () Bool (and .def_353 .def_376))
(define-fun .def_381 () Bool (and .def_245 .def_380))
(define-fun .def_378 () Bool (and .def_376 .def_377))
(define-fun .def_360 () Int (select .def_12 .def_32))
(define-fun .def_361 () (Array Int Int) (store .def_14 .def_32 .def_360))
(define-fun .def_362 () Bool (= |!{$(in_main#0)<a3.4>}.next| .def_361))
(define-fun .def_363 () Bool (and .def_157 .def_362))
(define-fun .def_364 () Bool (and .def_135 .def_363))
(define-fun .def_365 () Bool (and .def_137 .def_364))
(define-fun .def_366 () Bool (and .def_139 .def_365))
(define-fun .def_367 () Bool (and .def_141 .def_366))
(define-fun .def_368 () Bool (and .def_143 .def_367))
(define-fun .def_369 () Bool (and .def_145 .def_368))
(define-fun .def_370 () Bool (and .def_147 .def_369))
(define-fun .def_371 () Bool (and .def_149 .def_370))
(define-fun .def_372 () Bool (and .def_217 .def_371))
(define-fun .def_373 () Bool (and .def_153 .def_372))
(define-fun .def_374 () Bool (and .def_207 .def_373))
(define-fun .def_379 () Bool (and .def_374 .def_378))
(define-fun .def_382 () Bool (or .def_379 .def_381))
(define-fun .def_352 () Bool (= .def_61 102))
(define-fun .def_330 () Bool (= !pc.next 116))
(define-fun .def_356 () Bool (and .def_330 .def_352))
(define-fun .def_357 () Bool (and .def_245 .def_356))
(define-fun .def_354 () Bool (and .def_352 .def_353))
(define-fun .def_337 () Int (select .def_14 .def_32))
(define-fun .def_338 () (Array Int Int) (store .def_16 .def_32 .def_337))
(define-fun .def_339 () Bool (= |!{$(in_main#0)<a4.5>}.next| .def_338))
(define-fun .def_340 () Bool (and .def_158 .def_339))
(define-fun .def_341 () Bool (and .def_137 .def_340))
(define-fun .def_342 () Bool (and .def_139 .def_341))
(define-fun .def_343 () Bool (and .def_141 .def_342))
(define-fun .def_344 () Bool (and .def_143 .def_343))
(define-fun .def_345 () Bool (and .def_145 .def_344))
(define-fun .def_346 () Bool (and .def_147 .def_345))
(define-fun .def_347 () Bool (and .def_149 .def_346))
(define-fun .def_348 () Bool (and .def_217 .def_347))
(define-fun .def_349 () Bool (and .def_153 .def_348))
(define-fun .def_350 () Bool (and .def_207 .def_349))
(define-fun .def_355 () Bool (and .def_350 .def_354))
(define-fun .def_358 () Bool (or .def_355 .def_357))
(define-fun .def_329 () Bool (= .def_61 116))
(define-fun .def_308 () Bool (= !pc.next 130))
(define-fun .def_333 () Bool (and .def_308 .def_329))
(define-fun .def_334 () Bool (and .def_245 .def_333))
(define-fun .def_331 () Bool (and .def_329 .def_330))
(define-fun .def_315 () Int (select .def_16 .def_32))
(define-fun .def_316 () (Array Int Int) (store .def_18 .def_32 .def_315))
(define-fun .def_317 () Bool (= |!{$(in_main#0)<a5.6>}.next| .def_316))
(define-fun .def_318 () Bool (and .def_159 .def_317))
(define-fun .def_319 () Bool (and .def_139 .def_318))
(define-fun .def_320 () Bool (and .def_141 .def_319))
(define-fun .def_321 () Bool (and .def_143 .def_320))
(define-fun .def_322 () Bool (and .def_145 .def_321))
(define-fun .def_323 () Bool (and .def_147 .def_322))
(define-fun .def_324 () Bool (and .def_149 .def_323))
(define-fun .def_325 () Bool (and .def_217 .def_324))
(define-fun .def_326 () Bool (and .def_153 .def_325))
(define-fun .def_327 () Bool (and .def_207 .def_326))
(define-fun .def_332 () Bool (and .def_327 .def_331))
(define-fun .def_335 () Bool (or .def_332 .def_334))
(define-fun .def_307 () Bool (= .def_61 130))
(define-fun .def_287 () Bool (= !pc.next 144))
(define-fun .def_311 () Bool (and .def_287 .def_307))
(define-fun .def_312 () Bool (and .def_245 .def_311))
(define-fun .def_309 () Bool (and .def_307 .def_308))
(define-fun .def_294 () Int (select .def_18 .def_32))
(define-fun .def_295 () (Array Int Int) (store .def_20 .def_32 .def_294))
(define-fun .def_296 () Bool (= |!{$(in_main#0)<a6.7>}.next| .def_295))
(define-fun .def_297 () Bool (and .def_160 .def_296))
(define-fun .def_298 () Bool (and .def_141 .def_297))
(define-fun .def_299 () Bool (and .def_143 .def_298))
(define-fun .def_300 () Bool (and .def_145 .def_299))
(define-fun .def_301 () Bool (and .def_147 .def_300))
(define-fun .def_302 () Bool (and .def_149 .def_301))
(define-fun .def_303 () Bool (and .def_217 .def_302))
(define-fun .def_304 () Bool (and .def_153 .def_303))
(define-fun .def_305 () Bool (and .def_207 .def_304))
(define-fun .def_310 () Bool (and .def_305 .def_309))
(define-fun .def_313 () Bool (or .def_310 .def_312))
(define-fun .def_286 () Bool (= .def_61 144))
(define-fun .def_267 () Bool (= !pc.next 158))
(define-fun .def_290 () Bool (and .def_267 .def_286))
(define-fun .def_291 () Bool (and .def_245 .def_290))
(define-fun .def_288 () Bool (and .def_286 .def_287))
(define-fun .def_274 () Int (select .def_20 .def_32))
(define-fun .def_275 () (Array Int Int) (store .def_22 .def_32 .def_274))
(define-fun .def_276 () Bool (= |!{$(in_main#0)<a7.8>}.next| .def_275))
(define-fun .def_277 () Bool (and .def_161 .def_276))
(define-fun .def_278 () Bool (and .def_143 .def_277))
(define-fun .def_279 () Bool (and .def_145 .def_278))
(define-fun .def_280 () Bool (and .def_147 .def_279))
(define-fun .def_281 () Bool (and .def_149 .def_280))
(define-fun .def_282 () Bool (and .def_217 .def_281))
(define-fun .def_283 () Bool (and .def_153 .def_282))
(define-fun .def_284 () Bool (and .def_207 .def_283))
(define-fun .def_289 () Bool (and .def_284 .def_288))
(define-fun .def_292 () Bool (or .def_289 .def_291))
(define-fun .def_266 () Bool (= .def_61 158))
(define-fun .def_248 () Bool (= !pc.next 172))
(define-fun .def_270 () Bool (and .def_248 .def_266))
(define-fun .def_271 () Bool (and .def_245 .def_270))
(define-fun .def_268 () Bool (and .def_266 .def_267))
(define-fun .def_255 () Int (select .def_22 .def_32))
(define-fun .def_256 () (Array Int Int) (store .def_24 .def_32 .def_255))
(define-fun .def_257 () Bool (= |!{$(in_main#0)<a8.9>}.next| .def_256))
(define-fun .def_258 () Bool (and .def_162 .def_257))
(define-fun .def_259 () Bool (and .def_145 .def_258))
(define-fun .def_260 () Bool (and .def_147 .def_259))
(define-fun .def_261 () Bool (and .def_149 .def_260))
(define-fun .def_262 () Bool (and .def_217 .def_261))
(define-fun .def_263 () Bool (and .def_153 .def_262))
(define-fun .def_264 () Bool (and .def_207 .def_263))
(define-fun .def_269 () Bool (and .def_264 .def_268))
(define-fun .def_272 () Bool (or .def_269 .def_271))
(define-fun .def_247 () Bool (= .def_61 172))
(define-fun .def_226 () Bool (= !pc.next 186))
(define-fun .def_251 () Bool (and .def_226 .def_247))
(define-fun .def_252 () Bool (and .def_245 .def_251))
(define-fun .def_249 () Bool (and .def_247 .def_248))
(define-fun .def_233 () Int (select .def_24 .def_32))
(define-fun .def_234 () (Array Int Int) (store .def_26 .def_32 .def_233))
(define-fun .def_235 () Bool (= |!{$(in_main#0)<a0.10>}.next| .def_234))
(define-fun .def_236 () Bool (and .def_163 .def_235))
(define-fun .def_237 () Bool (and .def_147 .def_236))
(define-fun .def_238 () Bool (and .def_149 .def_237))
(define-fun .def_239 () Bool (and .def_217 .def_238))
(define-fun .def_240 () Bool (and .def_153 .def_239))
(define-fun .def_241 () Bool (and .def_207 .def_240))
(define-fun .def_250 () Bool (and .def_241 .def_249))
(define-fun .def_253 () Bool (or .def_250 .def_252))
(define-fun .def_225 () Bool (= .def_61 186))
(define-fun .def_195 () Bool (= !pc.next 200))
(define-fun .def_229 () Bool (and .def_195 .def_225))
(define-fun .def_221 () Bool (= |!{$(in_main#0)<x>}.next| 0))
(define-fun .def_167 () Bool (and .def_151 .def_166))
(define-fun .def_222 () Bool (and .def_167 .def_221))
(define-fun .def_223 () Bool (and .def_206 .def_222))
(define-fun .def_230 () Bool (and .def_223 .def_229))
(define-fun .def_227 () Bool (and .def_225 .def_226))
(define-fun .def_208 () Int (select .def_10 .def_32))
(define-fun .def_209 () (Array Int Int) (store .def_26 .def_32 .def_208))
(define-fun .def_211 () Bool (= |!{$(in_main#0)<a0.10>}.next| .def_209))
(define-fun .def_212 () Bool (and .def_163 .def_211))
(define-fun .def_213 () Bool (and .def_147 .def_212))
(define-fun .def_214 () Bool (and .def_149 .def_213))
(define-fun .def_218 () Bool (and .def_214 .def_217))
(define-fun .def_219 () Bool (and .def_153 .def_218))
(define-fun .def_220 () Bool (and .def_207 .def_219))
(define-fun .def_228 () Bool (and .def_220 .def_227))
(define-fun .def_231 () Bool (or .def_228 .def_230))
(define-fun .def_199 () Bool (= !pc.next 0))
(define-fun .def_190 () Bool (= .def_61 200))
(define-fun .def_200 () Bool (and .def_190 .def_199))
(define-fun .def_116 () Bool (<= .def_28 .def_34))
(define-fun .def_175 () Bool (and .def_116 .def_127))
(define-fun .def_176 () Bool (and .def_129 .def_175))
(define-fun .def_177 () Bool (and .def_131 .def_176))
(define-fun .def_178 () Bool (and .def_133 .def_177))
(define-fun .def_179 () Bool (and .def_135 .def_178))
(define-fun .def_180 () Bool (and .def_137 .def_179))
(define-fun .def_181 () Bool (and .def_139 .def_180))
(define-fun .def_182 () Bool (and .def_141 .def_181))
(define-fun .def_183 () Bool (and .def_143 .def_182))
(define-fun .def_184 () Bool (and .def_145 .def_183))
(define-fun .def_185 () Bool (and .def_147 .def_184))
(define-fun .def_186 () Bool (and .def_149 .def_185))
(define-fun .def_187 () Bool (and .def_151 .def_186))
(define-fun .def_188 () Bool (and .def_153 .def_187))
(define-fun .def_201 () Bool (and .def_188 .def_200))
(define-fun .def_196 () Bool (and .def_190 .def_195))
(define-fun .def_169 () Int (* (- 1) |!{$(in_main#0)<x>}.next|))
(define-fun .def_170 () Int (+ .def_34 .def_169))
(define-fun .def_171 () Bool (= .def_170 (- 1)))
(define-fun .def_172 () Bool (and .def_167 .def_171))
(define-fun .def_119 () Int (select .def_26 .def_34))
(define-fun .def_118 () Int (select .def_8 .def_34))
(define-fun .def_120 () Bool (= .def_118 .def_119))
(define-fun .def_121 () Int (ite .def_120 1 0))
(define-fun .def_122 () Bool (= .def_121 0))
(define-fun .def_123 () Bool (not .def_122))
(define-fun .def_173 () Bool (and .def_123 .def_172))
(define-fun .def_117 () Bool (not .def_116))
(define-fun .def_174 () Bool (and .def_117 .def_173))
(define-fun .def_197 () Bool (and .def_174 .def_196))
(define-fun .def_192 () Bool (= !pc.next 220))
(define-fun .def_193 () Bool (and .def_190 .def_192))
(define-fun .def_128 () Bool (and .def_122 .def_127))
(define-fun .def_130 () Bool (and .def_128 .def_129))
(define-fun .def_132 () Bool (and .def_130 .def_131))
(define-fun .def_134 () Bool (and .def_132 .def_133))
(define-fun .def_136 () Bool (and .def_134 .def_135))
(define-fun .def_138 () Bool (and .def_136 .def_137))
(define-fun .def_140 () Bool (and .def_138 .def_139))
(define-fun .def_142 () Bool (and .def_140 .def_141))
(define-fun .def_144 () Bool (and .def_142 .def_143))
(define-fun .def_146 () Bool (and .def_144 .def_145))
(define-fun .def_148 () Bool (and .def_146 .def_147))
(define-fun .def_150 () Bool (and .def_148 .def_149))
(define-fun .def_152 () Bool (and .def_150 .def_151))
(define-fun .def_154 () Bool (and .def_152 .def_153))
(define-fun .def_155 () Bool (and .def_117 .def_154))
(define-fun .def_194 () Bool (and .def_155 .def_193))
(define-fun .def_198 () Bool (or .def_194 .def_197))
(define-fun .def_202 () Bool (or .def_198 .def_201))
(define-fun .def_114 () Bool (and .def_64 .def_113))
(define-fun .def_110 () Bool (= |!{$(in_main#0)<x>}.next| |%{$(in_main#0)<x>}#1|))
(define-fun .def_108 () Bool (= |!{$(in_main#0)<i>}.next| |%{$(in_main#0)<i>}#1|))
(define-fun .def_106 () Bool (= |!{$(in_main#0)<a>}.next| 0))
(define-fun .def_104 () Bool (= |!{$(in_main#0)<N>}.next| |!{$(in_main#0)<$(in___VERIFIER_nondet_int#0)<h#<__VERIFIER_nondet_int.return>>>}|))
(define-fun .def_102 () Bool (= |!{$(in_main#0)<a0.10>}.next| |%{$(in_main#0)<a0.10>}#1|))
(define-fun .def_100 () Bool (= |!{$(in_main#0)<a8.9>}.next| |%{$(in_main#0)<a8.9>}#1|))
(define-fun .def_98 () Bool (= |!{$(in_main#0)<a7.8>}.next| |%{$(in_main#0)<a7.8>}#1|))
(define-fun .def_96 () Bool (= |!{$(in_main#0)<a6.7>}.next| |%{$(in_main#0)<a6.7>}#1|))
(define-fun .def_94 () Bool (= |!{$(in_main#0)<a5.6>}.next| |%{$(in_main#0)<a5.6>}#1|))
(define-fun .def_92 () Bool (= |!{$(in_main#0)<a4.5>}.next| |%{$(in_main#0)<a4.5>}#1|))
(define-fun .def_90 () Bool (= |!{$(in_main#0)<a3.4>}.next| |%{$(in_main#0)<a3.4>}#1|))
(define-fun .def_88 () Bool (= |!{$(in_main#0)<a2.3>}.next| |%{$(in_main#0)<a2.3>}#1|))
(define-fun .def_86 () Bool (= |!{$(in_main#0)<a9.2>}.next| |%{$(in_main#0)<a9.2>}#1|))
(define-fun .def_85 () Bool (= |!{$(in_main#0)<a1.1>}.next| |%{$(in_main#0)<a1.1>}#1|))
(define-fun .def_87 () Bool (and .def_85 .def_86))
(define-fun .def_89 () Bool (and .def_87 .def_88))
(define-fun .def_91 () Bool (and .def_89 .def_90))
(define-fun .def_93 () Bool (and .def_91 .def_92))
(define-fun .def_95 () Bool (and .def_93 .def_94))
(define-fun .def_97 () Bool (and .def_95 .def_96))
(define-fun .def_99 () Bool (and .def_97 .def_98))
(define-fun .def_101 () Bool (and .def_99 .def_100))
(define-fun .def_103 () Bool (and .def_101 .def_102))
(define-fun .def_105 () Bool (and .def_103 .def_104))
(define-fun .def_107 () Bool (and .def_105 .def_106))
(define-fun .def_109 () Bool (and .def_107 .def_108))
(define-fun .def_111 () Bool (and .def_109 .def_110))
(define-fun .def_115 () Bool (and .def_111 .def_114))
(define-fun .def_203 () Bool (or .def_115 .def_202))
(define-fun .def_232 () Bool (or .def_203 .def_231))
(define-fun .def_254 () Bool (or .def_232 .def_253))
(define-fun .def_273 () Bool (or .def_254 .def_272))
(define-fun .def_293 () Bool (or .def_273 .def_292))
(define-fun .def_314 () Bool (or .def_293 .def_313))
(define-fun .def_336 () Bool (or .def_314 .def_335))
(define-fun .def_359 () Bool (or .def_336 .def_358))
(define-fun .def_383 () Bool (or .def_359 .def_382))
(define-fun .def_408 () Bool (or .def_383 .def_407))
(define-fun .def_440 () Bool (! (or .def_408 .def_439) :trans true))
(define-fun .def_204 () Bool (= .def_61 220))
(define-fun .def_441 () Bool (! (not .def_204) :invar-property 0 :invar-property-name ||))
(assert true)
